p tw 85 93
1 2
2 13
3 4
4 5
5 6
6 7
6 22
7 8
7 10
8 9
9 12
10 11
11 12
12 14
13 24
13 57
14 15
15 16
16 17
17 18
18 19
19 20
20 21
21 5
22 23
23 25
23 73
24 35
25 26
26 27
27 28
28 29
28 32
29 30
30 31
31 26
32 33
33 34
34 36
34 51
35 46
35 57
36 37
37 38
38 39
39 40
40 41
41 42
42 43
43 44
44 45
45 47
46 83
47 48
48 49
49 50
50 32
51 52
52 53
53 54
53 56
54 55
55 59
56 58
57 68
58 59
59 60
60 61
61 62
62 63
63 64
64 65
65 66
66 67
67 69
68 79
69 70
70 71
71 72
72 73
73 74
74 75
74 77
75 76
76 77
77 78
78 80
79 85
80 81
81 82
82 83
83 84
85 3
